c --- [ banner ] -------------------------------------------------------------
c 
c CaDiCaL Radically Simplified CDCL SAT Solver
c Copyright (c) 2016-2021 A. Biere, M. Fleury, N. Froleyks
c 
c Version 1.5.2 9c38a080b32c28d805e8e6ca21849856b0cda605
c g++ (Ubuntu 7.5.0-3ubuntu1~18.04) 7.5.0 -Wall -Wextra -O3 -DNDEBUG
c Wed Feb 16 23:15:36 EST 2022 Linux fac-vanhoeve01 5.4.0-99-generic x86_64
c 
c --- [ parsing input ] ------------------------------------------------------
c 
c reading DIMACS file from '<stdin>' (use '-h' for a list of common options)
c found 'p cnf 2692 7976' header
c parsed 7976 clauses in 0.00 seconds process time
c disconnecting from '<stdin>'
c after reading 106558 bytes 0.1 MB
c 
c --- [ options ] ------------------------------------------------------------
c 
c all options are set to their default value
c 
c --- [ solving ] ------------------------------------------------------------
c 
c time measured in process time since initialization
c 
c  seconds  reductions  redundant irredundant
c         MB    restarts       trail    variables
c          level   conflicts       glue      remaining
c 
c *  0.00  5  0 0   0    0    0  0% 0 7974 2618 97%
c {  0.01  5  0 0   0    0    0  0% 0 7974 2618 97%
c -  0.02  5 59 1  31  300  278 69% 9 7902 2618 97%
c -  0.06  5 36 2  64  902  704 77% 9 7902 2618 97%
c }  0.06  5 35 2  79 1001  794 78% 9 7902 2618 97%
c [  0.06  5  0 2  79 1001  794  0% 0 7902 2618 97%
c O  0.06  5 16 2  79 1002  795 96% 6 7902 2618 97%
c -  0.11  6 17 3  79 1802  936 93% 13 7902 2618 97%
c ]  0.18  6 18 3  80 3001 1956 93% 14 7902 2618 97%
c {  0.18  6 35 3  80 3001 1956 78% 9 7902 2618 97%
c -  0.18  6 35 4  81 3002 1417 78% 9 7902 2618 97%
c F  0.18  6 35 4  81 3003 1418 78% 9 7902 2618 97%
c s  0.19  6 33 4 101 3214 1619 80% 10 7902 2618 97%
c e  0.22  6 33 4 101 3214   55 80% 10 5684 885 33%
c s  0.22  6 33 4 101 3214   53 80% 10 5684 885 33%
c -  0.28  6 28 5 186 4503 1241 85% 10 5684 885 33%
c p  0.30  6 27 5 224 5002 1720 86% 10 5684 885 33%
c #  0.35  6 25 5 312 6005 2667 85% 10 5684 885 33%
c -  0.36  6 25 6 325 6305 2249 85% 10 5684 885 33%
c }  0.39  6 24 6 354 7002 2891 85% 10 5684 885 33%
c 
c  seconds  reductions  redundant   irredundant
c         MB    restarts       trail      variables
c          level   conflicts        glue      remaining
c 
c [  0.39  6 18 6 354 7002 2891 282% 14 5684 885 33%
c -  0.46  6 17 7 355 8405 2787 202% 12 5684 885 33%
c I  0.54  6 17 7 356 10006 4237 165% 12 5684 885 33%
c -  0.58  7 20 8 357 10805 3254 154% 13 5684 885 33%
c -  0.73  7 22 9 359 13507 3681 133% 14 5684 885 33%
c s  0.76  7 22 9 359 13950 4049 131% 14 5684 885 33%
c w  0.77  7 22 9 359 13950 4049 131% 14 5684 885 33%
c s  0.78  7 22 9 359 13950 4049 131% 14 5684 885 33%
c ^  0.78  7 22 9 359 13950 4049 131% 14 5684 885 33%
c ]  0.84  7 22 9 359 15002 4916 126% 15 5684 885 33%
c {  0.84  7 24 9 359 15002 4916 85% 10 5684 885 33%
c p  0.84  7 24 9 359 15002 4921 85% 10 5684 885 33%
c B  0.84  7 24 9 359 15009 4928 85% 10 5684 885 33%
c -  0.92  7 23 10 476 16507 4137 85% 10 5684 885 33%
c -  1.05  6 21 11 606 19807 4476 80% 10 5684 885 33%
c W  1.11  6 20 11 616 21011 5307 77% 10 5684 885 33%
c -  1.23  7 20 12 835 23407 4956 79% 10 5684 885 33%
c -  1.41  7 20 13 1035 27309 5695 80% 10 5684 885 33%
c F  1.45  7 20 13 1042 28012 6280 80% 10 5684 885 33%
c p  1.55  7 19 13 1067 30002 8125 81% 10 5684 885 33%
c 
c  seconds  reductions     redundant  irredundant
c         MB     restarts         trail     variables
c          level      conflicts       glue      remaining
c 
c s  1.56  7 19 13 1069 30049 8147 81% 10 5684 885 33%
c w  1.58  7 19 13 1069 30049 8143 81% 10 5684 885 33%
c s  1.59  7 19 13 1069 30049 8142 81% 10 5684 885 33%
c ^  1.59  7 19 13 1069 30049 8142 81% 10 5684 885 33%
c }  1.65  7 19 13 1143 31004 8965 80% 10 5684 885 33%
c [  1.65  7 22 13 1143 31004 8965 126% 15 5684 885 33%
c -  1.68  7 22 14 1143 31511 6209 123% 14 5684 885 33%
c -  1.92  7 22 15 1146 36012 6508 112% 15 5684 885 33%
c B  1.92  7 22 15 1146 36013 6509 112% 15 5684 885 33%
c -  2.20  8 26 16 1149 40814 6428 106% 17 5684 885 33%
c W  2.48  8 26 16 1150 45015 9589 102% 18 5684 885 33%
c -  2.54  7 26 17 1150 45915 6150 102% 18 5684 885 33%
c p  2.79  7 25 17 1151 50002 8972 100% 18 5684 885 33%
c -  2.87  7 25 18 1151 51315 6311 99% 18 5684 885 33%
c s  2.89  7 25 18 1151 51515 6446 99% 18 5684 885 33%
c s  2.91  7 25 18 1151 51515 6446 99% 18 5684 885 33%
c ^  2.91  7 25 18 1151 51515 6446 99% 18 5684 885 33%
c O  3.13  7 25 18 1152 55016 9069 98% 18 5684 885 33%
c -  3.24  8 24 19 1154 57016 6948 97% 18 5684 885 33%
c ]  3.61  8 24 19 1158 63007 11607 96% 18 5684 885 33%
c 
c  seconds  reductions      redundant  irredundant
c         MB     restarts          trail     variables
c          level      conflicts        glue      remaining
c 
c {  3.61  8 19 19 1158 63007 11607 80% 10 5684 885 33%
c -  3.62  9 19 20 1159 63019 7486 80% 10 5684 885 33%
c B  3.75  9 19 20 1375 66019 10157 78% 10 5684 885 33%
c -  3.92  9 19 21 1616 69319 8647 78% 10 5684 885 33%
c p  4.19  9 18 21 1887 75003 13570 79% 10 5684 885 33%
c -  4.25  9 18 22 1940 75919 9882 79% 10 5684 885 33%
c W  4.36  9 18 22 1993 78020 11730 79% 10 5684 885 33%
c s  4.40  9 18 22 2016 78347 11989 79% 10 5684 885 33%
c w  4.42  9 18 22 2016 78347 11984 79% 10 5684 885 33%
c s  4.45  9 18 22 2016 78347 11981 79% 10 5684 885 33%
c ^  4.45  9 18 22 2016 78347 11981 79% 10 5684 885 33%
c -  4.70  8 18 23 2345 82821 11058 80% 10 5684 885 33%
c -  5.11  8 18 24 2900 90021 11599 81% 10 5684 885 33%
c #  5.16  8 19 24 2973 91021 12504 81% 10 5684 885 33%
c -  5.53  8 18 25 3410 97521 12125 81% 10 5684 885 33%
c p  5.94  8 19 25 3986 105004 18987 81% 10 5684 885 33%
c B  5.95  8 19 25 3991 105025 19006 81% 10 5684 885 33%
c -  5.97  8 19 26 4007 105321 12895 81% 10 5684 885 33%
c s  6.29  8 19 26 4414 110548 17568 82% 10 5684 885 33%
c w  6.31  8 19 26 4414 110548 17566 82% 10 5684 885 33%
c 
c  seconds  reductions       redundant  irredundant
c         MB     restarts           trail     variables
c          level      conflicts         glue      remaining
c 
c t  6.31  8 19 26 4414 110548 17565 82% 10 5684 885 33%
c e  6.33  8 19 26 4414 110548 3699 82% 10 8120 567 21%
c s  6.34  8 19 26 4414 110548 3699 82% 10 8120 567 21%
c ^  6.34  8 19 26 4414 110548 3699 82% 10 8120 567 21%
c -  6.48  8 19 27 4612 113422 5011 82% 10 8120 567 21%
c W  6.86  8 19 27 5173 120027 11118 83% 10 8120 567 21%
c -  6.96  9 19 28 5273 121825 10348 83% 10 8120 567 21%
c }  7.22  9 19 28 5564 127007 15103 83% 10 8120 567 21%
c [  7.22  9 24 28 5564 127007 15103 150% 18 8120 567 21%
c -  7.39 10 23 29 5564 130526 12019 144% 17 8120 567 21%
c B  7.66 10 22 29 5569 136029 15857 136% 16 8120 567 21%
c -  7.86 10 23 30 5571 139526 12076 132% 17 8120 567 21%
c p  7.90 10 23 30 5571 140007 12481 132% 17 8120 567 21%
c -  8.40 10 23 31 5572 148826 12894 124% 17 8120 567 21%
c W  8.71 10 23 31 5573 153033 16627 121% 17 8120 567 21%
c -  9.11 10 23 32 5573 158426 13044 117% 17 8120 567 21%
c s  9.51 10 23 32 5573 164310 17450 114% 17 8120 567 21%
c w  9.53 10 23 32 5573 164310 17448 114% 17 8120 567 21%
c s  9.56 10 23 32 5573 164310 17445 114% 17 8120 567 21%
c -  9.83  9 23 33 5574 168329 13318 112% 17 8120 567 21%
c 
c  seconds  reductions       redundant   irredundant
c         MB     restarts           trail      variables
c          level      conflicts          glue      remaining
c 
c I 10.00  9 23 33 5576 171037 15272 111% 17 8120 567 21%
c - 10.47 11 23 34 5580 178529 13456 108% 17 8120 567 21%
c p 10.57 11 23 34 5580 180008 14377 108% 17 8120 567 21%
c - 11.13 10 22 35 5587 189029 13399 105% 17 8120 567 21%
c B 11.19 10 22 35 5587 190039 14271 105% 17 8120 567 21%
c - 11.75 11 24 36 5588 199829 14716 102% 17 8120 567 21%
c W 12.47 11 24 36 5595 210041 23697 100% 17 8120 567 21%
c - 12.55 11 24 37 5595 210930 15164 100% 17 8120 567 21%
c - 13.34 11 24 38 5602 222330 14973 98% 17 8120 567 21%
c p 13.51 11 24 38 5602 225008 17141 98% 17 8120 567 21%
c O 13.94 11 24 38 5603 231043 21339 97% 17 8120 567 21%
c - 14.11 12 23 39 5603 234030 14650 97% 17 8120 567 21%
c - 14.79 12 23 40 5604 246031 14174 95% 17 8120 567 21%
c B 15.20 12 22 40 5605 253045 19456 95% 17 8120 567 21%
c ] 15.32 12 23 40 5605 255008 21134 95% 17 8120 567 21%
c { 15.32 12 19 40 5605 255008 21134 83% 10 8120 567 21%
c - 15.49 12 19 41 5738 258331 15663 80% 10 8120 567 21%
c - 16.22 14 19 42 6568 270932 17789 81% 10 8120 567 21%
c p 16.46 14 19 42 6814 275009 21475 81% 10 8120 567 21%
c F 16.52 14 19 42 6870 276046 22431 81% 10 8120 567 21%
c 
c  seconds  reductions       redundant  irredundant
c         MB     restarts           trail     variables
c          level      conflicts         glue      remaining
c 
c - 17.06 14 19 43 7651 283832 20056 82% 10 8120 567 21%
c - 17.96 14 19 44 8583 297033 20638 80% 10 8120 567 21%
c B 18.15 14 19 44 8824 300049 23274 80% 10 8120 567 21%
c - 18.89 12 19 45 9636 310533 22164 80% 10 8120 567 21%
c - 19.85 12 19 46 10689 324333 22794 80% 10 8120 567 21%
c } 19.94 12 19 46 10693 325050 23456 80% 10 8120 567 21%
c 1 19.94 12 19 46 10693 325050 23456 80% 10 8120 567 21%
c 
c --- [ result ] -------------------------------------------------------------
c 
s SATISFIABLE
v -1 -2 -3 -4 -5 -6 -7 -8 -9 -10 11 -12 -13 -14 -15 16 -17 18 -19 -20 21 -22
v -23 24 -25 -26 -27 -28 -29 30 -31 -32 -33 -34 -35 -36 -37 -38 -39 -40 -41
v -42 -43 -44 -45 -46 47 -48 -49 -50 -51 -52 -53 -54 -55 56 -57 -58 -59 -60
v -61 -62 -63 -64 -65 -66 -67 -68 69 70 71 72 73 -74 -75 -76 77 -78 -79 -80
v -81 -82 -83 -84 85 -86 -87 -88 89 -90 -91 -92 -93 -94 -95 96 97 -98 -99 100
v -101 -102 -103 -104 -105 -106 -107 -108 -109 -110 111 -112 -113 -114 -115
v -116 -117 118 -119 -120 -121 -122 123 -124 -125 -126 -127 -128 -129 -130 131
v -132 -133 -134 -135 -136 -137 -138 -139 140 141 -142 -143 -144 -145 -146
v -147 148 -149 -150 -151 -152 153 -154 -155 -156 -157 -158 -159 -160 161 162
v -163 164 -165 -166 -167 168 -169 -170 -171 -172 173 -174 -175 -176 -177 -178
v 179 -180 -181 -182 183 -184 -185 -186 -187 -188 -189 -190 -191 -192 -193
v -194 -195 -196 -197 198 -199 -200 201 -202 -203 -204 -205 -206 -207 -208
v -209 210 -211 -212 -213 -214 -215 -216 -217 218 -219 -220 -221 -222 -223
v -224 -225 -226 -227 -228 -229 -230 231 232 233 234 -235 -236 -237 -238 -239
v 240 -241 -242 -243 -244 -245 -246 -247 -248 -249 -250 251 -252 -253 254 255
v -256 -257 -258 259 -260 261 262 -263 264 265 -266 267 268 -269 -270 -271
v -272 -273 -274 -275 -276 -277 -278 279 -280 281 -282 -283 284 -285 286 -287
v -288 289 -290 -291 292 -293 -294 -295 296 297 -298 -299 300 -301 -302 -303
v -304 -305 306 -307 -308 309 -310 -311 -312 313 314 315 316 317 318 319 -320
v 321 322 323 -324 325 326 327 328 329 330 331 332 333 334 335 336 337 338 339
v 340 341 342 343 344 345 346 347 348 349 350 351 352 353 354 355 356 357 358
v 359 360 361 362 363 364 365 366 367 368 369 370 371 372 373 374 375 376 377
v 378 379 380 381 382 383 384 385 386 387 388 389 390 391 392 393 394 395 396
v 397 398 -399 -400 -401 402 403 404 405 406 407 408 409 410 411 412 413 414
v 415 416 417 418 419 420 421 422 423 424 425 426 427 428 429 430 431 432 433
v 434 435 436 437 438 439 440 441 442 443 444 445 446 447 448 449 450 451 452
v 453 454 455 456 457 458 459 460 461 462 463 464 465 466 467 468 469 470 471
v 472 -473 -474 -475 -476 477 478 479 480 481 482 483 484 485 486 487 488 489
v 490 491 492 493 494 495 496 497 498 499 500 501 502 503 504 505 506 507 508
v 509 510 511 512 513 514 515 516 517 518 519 520 521 522 523 524 525 526 527
v 528 529 530 531 532 533 534 535 536 537 538 539 540 541 542 543 544 545 546
v -547 -548 -549 -550 -551 -552 -553 -554 555 556 557 558 559 560 561 562 563
v 564 565 566 567 568 569 570 571 572 573 574 575 576 577 578 579 580 581 582
v 583 584 585 586 587 588 589 590 591 592 593 594 595 596 597 598 599 600 601
v 602 603 604 605 606 607 608 609 610 611 612 613 614 615 616 617 618 619 620
v -621 -622 -623 -624 -625 -626 -627 -628 -629 -630 631 632 633 634 635 636
v 637 638 639 640 641 642 643 644 645 646 647 648 649 650 651 652 653 654 655
v 656 657 658 659 660 661 662 663 664 665 666 667 668 669 670 671 672 673 674
v 675 676 677 678 679 680 681 682 683 684 685 686 687 688 689 690 691 692 693
v 694 -695 -696 -697 -698 -699 -700 -701 -702 -703 -704 -705 706 707 708 709
v 710 711 712 713 714 715 716 717 718 719 720 721 722 723 724 725 726 727 728
v 729 730 731 732 733 734 735 736 737 738 739 740 741 742 743 744 745 746 747
v 748 749 750 751 752 753 754 755 756 757 758 759 760 761 762 763 764 765 766
v 767 768 -769 -770 -771 -772 -773 -774 -775 -776 -777 -778 -779 -780 -781 782
v 783 784 785 786 787 788 789 790 791 792 793 794 795 796 797 798 799 800 801
v 802 803 804 805 806 807 808 809 810 811 812 813 814 815 816 817 818 819 820
v 821 822 823 824 825 826 827 828 829 830 831 832 833 834 835 836 837 838 839
v 840 841 842 -843 -844 -845 -846 -847 -848 -849 -850 -851 -852 -853 -854 -855
v -856 857 858 859 860 861 862 863 864 865 866 867 868 869 870 871 872 873 874
v 875 876 877 878 879 880 881 882 883 884 885 886 887 888 889 890 891 892 893
v 894 895 896 897 898 899 900 901 902 903 904 905 906 907 908 909 910 911 912
v 913 914 915 916 -917 -918 -919 -920 -921 -922 -923 -924 -925 -926 -927 -928
v -929 -930 -931 -932 933 934 935 936 937 938 939 940 941 942 943 944 945 946
v 947 948 949 950 951 952 953 954 955 956 957 958 959 960 961 962 963 964 965
v 966 967 968 969 970 971 972 973 974 975 976 977 978 979 980 981 982 983 984
v 985 986 987 988 989 990 -991 -992 -993 -994 -995 -996 -997 -998 -999 -1000
v -1001 -1002 -1003 -1004 -1005 -1006 -1007 1008 1009 1010 1011 1012 1013 1014
v 1015 1016 1017 1018 1019 1020 1021 1022 1023 1024 1025 1026 1027 1028 1029
v 1030 1031 1032 1033 1034 1035 1036 1037 1038 1039 1040 1041 1042 1043 1044
v 1045 1046 1047 1048 1049 1050 1051 1052 1053 1054 1055 1056 1057 1058 1059
v 1060 1061 1062 1063 1064 -1065 -1066 -1067 -1068 -1069 -1070 -1071 -1072
v -1073 -1074 -1075 -1076 -1077 -1078 -1079 -1080 -1081 -1082 -1083 -1084
v -1085 -1086 -1087 -1088 -1089 -1090 -1091 -1092 1093 1094 1095 1096 1097
v 1098 1099 1100 1101 1102 1103 1104 1105 1106 1107 1108 1109 1110 1111 1112
v 1113 1114 1115 1116 1117 1118 1119 1120 1121 1122 1123 1124 1125 1126 1127
v 1128 1129 1130 1131 1132 1133 1134 1135 1136 1137 1138 -1139 -1140 -1141
v -1142 -1143 -1144 -1145 -1146 -1147 -1148 -1149 -1150 -1151 -1152 -1153
v -1154 -1155 -1156 -1157 -1158 -1159 -1160 -1161 -1162 -1163 -1164 -1165
v -1166 -1167 -1168 1169 1170 1171 1172 1173 1174 1175 1176 1177 1178 1179
v 1180 1181 1182 1183 1184 1185 1186 1187 1188 1189 1190 1191 1192 1193 1194
v 1195 1196 1197 1198 1199 1200 1201 1202 1203 1204 1205 1206 1207 1208 1209
v 1210 1211 1212 -1213 -1214 -1215 -1216 -1217 -1218 -1219 -1220 -1221 -1222
v -1223 -1224 -1225 -1226 -1227 -1228 -1229 -1230 -1231 -1232 -1233 -1234
v -1235 -1236 -1237 -1238 -1239 -1240 -1241 -1242 -1243 -1244 -1245 1246 1247
v 1248 1249 1250 1251 1252 1253 1254 1255 1256 1257 1258 1259 1260 1261 1262
v 1263 1264 1265 1266 1267 1268 1269 1270 1271 1272 1273 1274 1275 1276 1277
v 1278 1279 1280 1281 1282 1283 1284 1285 1286 -1287 -1288 -1289 -1290 -1291
v -1292 -1293 -1294 -1295 -1296 -1297 -1298 -1299 -1300 -1301 -1302 -1303
v -1304 -1305 -1306 -1307 -1308 -1309 -1310 -1311 -1312 -1313 -1314 -1315
v -1316 -1317 -1318 -1319 -1320 -1321 1322 1323 1324 1325 1326 1327 1328 1329
v 1330 1331 1332 1333 1334 1335 1336 1337 1338 1339 1340 1341 1342 1343 1344
v 1345 1346 1347 1348 1349 1350 1351 1352 1353 1354 1355 1356 1357 1358 1359
v 1360 -1361 -1362 -1363 -1364 -1365 -1366 -1367 -1368 -1369 -1370 -1371 -1372
v -1373 -1374 -1375 -1376 -1377 -1378 -1379 -1380 -1381 -1382 -1383 -1384
v -1385 -1386 -1387 -1388 -1389 -1390 -1391 -1392 -1393 -1394 -1395 -1396
v -1397 -1398 1399 1400 1401 1402 1403 1404 1405 1406 1407 1408 1409 1410 1411
v 1412 1413 1414 1415 1416 1417 1418 1419 1420 1421 1422 1423 1424 1425 1426
v 1427 1428 1429 1430 1431 1432 1433 1434 -1435 -1436 -1437 -1438 -1439 -1440
v -1441 -1442 -1443 -1444 -1445 -1446 -1447 -1448 -1449 -1450 -1451 -1452
v -1453 -1454 -1455 -1456 -1457 -1458 -1459 -1460 -1461 -1462 -1463 -1464
v -1465 -1466 -1467 -1468 -1469 -1470 -1471 -1472 -1473 -1474 -1475 1476 1477
v 1478 1479 1480 1481 1482 1483 1484 1485 1486 1487 1488 1489 1490 1491 1492
v 1493 1494 1495 1496 1497 1498 1499 1500 1501 1502 1503 1504 1505 1506 1507
v 1508 -1509 -1510 -1511 -1512 -1513 -1514 -1515 -1516 -1517 -1518 -1519 -1520
v -1521 -1522 -1523 -1524 -1525 -1526 -1527 -1528 -1529 -1530 -1531 -1532
v -1533 -1534 -1535 -1536 -1537 -1538 -1539 -1540 -1541 -1542 -1543 -1544
v -1545 -1546 -1547 -1548 -1549 -1550 -1551 -1552 -1553 1554 1555 1556 1557
v 1558 1559 1560 1561 1562 1563 1564 1565 1566 1567 1568 1569 1570 1571 1572
v 1573 1574 1575 1576 1577 1578 1579 1580 1581 1582 -1583 -1584 -1585 -1586
v -1587 -1588 -1589 -1590 -1591 -1592 -1593 -1594 -1595 -1596 -1597 -1598
v -1599 -1600 -1601 -1602 -1603 -1604 -1605 -1606 -1607 -1608 -1609 -1610
v -1611 -1612 -1613 -1614 -1615 -1616 -1617 -1618 -1619 -1620 -1621 -1622
v -1623 -1624 -1625 -1626 -1627 -1628 1629 1630 1631 1632 1633 1634 1635 1636
v 1637 1638 1639 1640 1641 1642 1643 1644 1645 1646 1647 1648 1649 1650 1651
v 1652 1653 1654 1655 1656 -1657 -1658 -1659 -1660 -1661 -1662 -1663 -1664
v -1665 -1666 -1667 -1668 -1669 -1670 -1671 -1672 -1673 -1674 -1675 -1676
v -1677 -1678 -1679 -1680 -1681 -1682 -1683 -1684 -1685 -1686 -1687 -1688
v -1689 -1690 -1691 -1692 -1693 -1694 -1695 -1696 -1697 -1698 -1699 -1700
v -1701 -1702 -1703 -1704 -1705 1706 1707 1708 1709 1710 1711 1712 1713 1714
v 1715 1716 1717 1718 1719 1720 1721 1722 1723 1724 1725 1726 1727 1728 1729
v 1730 -1731 -1732 -1733 -1734 -1735 -1736 -1737 -1738 -1739 -1740 -1741 -1742
v -1743 -1744 -1745 -1746 -1747 -1748 -1749 -1750 -1751 -1752 -1753 -1754
v -1755 -1756 -1757 -1758 -1759 -1760 -1761 -1762 -1763 -1764 -1765 -1766
v -1767 -1768 -1769 -1770 -1771 -1772 -1773 -1774 -1775 -1776 -1777 -1778
v -1779 -1780 -1781 -1782 -1783 -1784 -1785 1786 1787 1788 1789 1790 1791 1792
v 1793 1794 1795 1796 1797 1798 1799 1800 1801 1802 1803 1804 -1805 -1806
v -1807 -1808 -1809 -1810 -1811 -1812 -1813 -1814 -1815 -1816 -1817 -1818
v -1819 -1820 -1821 -1822 -1823 -1824 -1825 -1826 -1827 -1828 -1829 -1830
v -1831 -1832 -1833 -1834 -1835 -1836 -1837 -1838 -1839 -1840 -1841 -1842
v -1843 -1844 -1845 -1846 -1847 -1848 -1849 -1850 -1851 -1852 -1853 -1854
v -1855 -1856 -1857 -1858 -1859 -1860 -1861 -1862 1863 1864 1865 1866 1867
v 1868 1869 1870 1871 1872 1873 1874 1875 1876 1877 1878 -1879 -1880 -1881
v -1882 -1883 -1884 -1885 -1886 -1887 -1888 -1889 -1890 -1891 -1892 -1893
v -1894 -1895 -1896 -1897 -1898 -1899 -1900 -1901 -1902 -1903 -1904 -1905
v -1906 -1907 -1908 -1909 -1910 -1911 -1912 -1913 -1914 -1915 -1916 -1917
v -1918 -1919 -1920 -1921 -1922 -1923 -1924 -1925 -1926 -1927 -1928 -1929
v -1930 -1931 -1932 -1933 -1934 -1935 -1936 -1937 -1938 -1939 -1940 1941 1942
v 1943 1944 1945 1946 1947 1948 1949 1950 1951 1952 -1953 -1954 -1955 -1956
v -1957 -1958 -1959 -1960 -1961 -1962 -1963 -1964 -1965 -1966 -1967 -1968
v -1969 -1970 -1971 -1972 -1973 -1974 -1975 -1976 -1977 -1978 -1979 -1980
v -1981 -1982 -1983 -1984 -1985 -1986 -1987 -1988 -1989 -1990 -1991 -1992
v -1993 -1994 -1995 -1996 -1997 -1998 -1999 -2000 -2001 -2002 -2003 -2004
v -2005 -2006 -2007 -2008 -2009 -2010 -2011 -2012 -2013 -2014 -2015 2016 2017
v 2018 2019 2020 2021 2022 2023 2024 2025 2026 -2027 -2028 -2029 -2030 -2031
v -2032 -2033 -2034 -2035 -2036 -2037 -2038 -2039 -2040 -2041 -2042 -2043
v -2044 -2045 -2046 -2047 -2048 -2049 -2050 -2051 -2052 -2053 -2054 -2055
v -2056 -2057 -2058 -2059 -2060 -2061 -2062 -2063 -2064 -2065 -2066 -2067
v -2068 -2069 -2070 -2071 -2072 -2073 -2074 -2075 -2076 -2077 -2078 -2079
v -2080 -2081 -2082 -2083 -2084 -2085 -2086 -2087 -2088 -2089 -2090 2091 2092
v 2093 2094 2095 2096 2097 2098 2099 2100 -2101 -2102 -2103 -2104 -2105 -2106
v -2107 -2108 -2109 -2110 -2111 -2112 -2113 -2114 -2115 -2116 -2117 -2118
v -2119 -2120 -2121 -2122 -2123 -2124 -2125 -2126 -2127 -2128 -2129 -2130
v -2131 -2132 -2133 -2134 -2135 -2136 -2137 -2138 -2139 -2140 -2141 -2142
v -2143 -2144 -2145 -2146 -2147 -2148 -2149 -2150 -2151 -2152 -2153 -2154
v -2155 -2156 -2157 -2158 -2159 -2160 -2161 -2162 -2163 -2164 -2165 2166 2167
v 2168 2169 2170 2171 2172 2173 2174 -2175 -2176 -2177 -2178 -2179 -2180 -2181
v -2182 -2183 -2184 -2185 -2186 -2187 -2188 -2189 -2190 -2191 -2192 -2193
v -2194 -2195 -2196 -2197 -2198 -2199 -2200 -2201 -2202 -2203 -2204 -2205
v -2206 -2207 -2208 -2209 -2210 -2211 -2212 -2213 -2214 -2215 -2216 -2217
v -2218 -2219 -2220 -2221 -2222 -2223 -2224 -2225 -2226 -2227 -2228 -2229
v -2230 -2231 -2232 -2233 -2234 -2235 -2236 -2237 -2238 -2239 -2240 2241 2242
v 2243 2244 2245 2246 2247 2248 -2249 -2250 -2251 -2252 -2253 -2254 -2255
v -2256 -2257 -2258 -2259 -2260 -2261 -2262 -2263 -2264 -2265 -2266 -2267
v -2268 -2269 -2270 -2271 -2272 -2273 -2274 -2275 -2276 -2277 -2278 -2279
v -2280 -2281 -2282 -2283 -2284 -2285 -2286 -2287 -2288 -2289 -2290 -2291
v -2292 -2293 -2294 -2295 -2296 -2297 -2298 -2299 -2300 -2301 -2302 -2303
v -2304 -2305 -2306 -2307 -2308 -2309 -2310 -2311 -2312 -2313 -2314 -2315 2316
v 2317 2318 2319 2320 2321 2322 -2323 -2324 -2325 -2326 -2327 -2328 -2329
v -2330 -2331 -2332 -2333 -2334 -2335 -2336 -2337 -2338 -2339 -2340 -2341
v -2342 -2343 -2344 -2345 -2346 -2347 -2348 -2349 -2350 -2351 -2352 -2353
v -2354 -2355 -2356 -2357 -2358 -2359 -2360 -2361 -2362 -2363 -2364 -2365
v -2366 -2367 -2368 -2369 -2370 -2371 -2372 -2373 -2374 -2375 -2376 -2377
v -2378 -2379 -2380 -2381 -2382 -2383 -2384 -2385 -2386 -2387 -2388 -2389
v -2390 2391 2392 2393 2394 2395 2396 -2397 -2398 -2399 -2400 -2401 -2402
v -2403 -2404 -2405 -2406 -2407 -2408 -2409 -2410 -2411 -2412 -2413 -2414
v -2415 -2416 -2417 -2418 -2419 -2420 -2421 -2422 -2423 -2424 -2425 -2426
v -2427 -2428 -2429 -2430 -2431 -2432 -2433 -2434 -2435 -2436 -2437 -2438
v -2439 -2440 -2441 -2442 -2443 -2444 -2445 -2446 -2447 -2448 -2449 -2450
v -2451 -2452 -2453 -2454 -2455 -2456 -2457 -2458 -2459 -2460 -2461 -2462
v -2463 -2464 -2465 -2466 2467 2468 2469 2470 -2471 -2472 -2473 -2474 -2475
v -2476 -2477 -2478 -2479 -2480 -2481 -2482 -2483 -2484 -2485 -2486 -2487
v -2488 -2489 -2490 -2491 -2492 -2493 -2494 -2495 -2496 -2497 -2498 -2499
v -2500 -2501 -2502 -2503 -2504 -2505 -2506 -2507 -2508 -2509 -2510 -2511
v -2512 -2513 -2514 -2515 -2516 -2517 -2518 -2519 -2520 -2521 -2522 -2523
v -2524 -2525 -2526 -2527 -2528 -2529 -2530 -2531 -2532 -2533 -2534 -2535
v -2536 -2537 -2538 -2539 -2540 -2541 2542 2543 2544 -2545 -2546 -2547 -2548
v -2549 -2550 -2551 -2552 -2553 -2554 -2555 -2556 -2557 -2558 -2559 -2560
v -2561 -2562 -2563 -2564 -2565 -2566 -2567 -2568 -2569 -2570 -2571 -2572
v -2573 -2574 -2575 -2576 -2577 -2578 -2579 -2580 -2581 -2582 -2583 -2584
v -2585 -2586 -2587 -2588 -2589 -2590 -2591 -2592 -2593 -2594 -2595 -2596
v -2597 -2598 -2599 -2600 -2601 -2602 -2603 -2604 -2605 -2606 -2607 -2608
v -2609 -2610 -2611 -2612 -2613 -2614 -2615 -2616 2617 2618 -2619 -2620 -2621
v -2622 -2623 -2624 -2625 -2626 -2627 -2628 -2629 -2630 -2631 -2632 -2633
v -2634 -2635 -2636 -2637 -2638 -2639 -2640 -2641 -2642 -2643 -2644 -2645
v -2646 -2647 -2648 -2649 -2650 -2651 -2652 -2653 -2654 -2655 -2656 -2657
v -2658 -2659 -2660 -2661 -2662 -2663 -2664 -2665 -2666 -2667 -2668 -2669
v -2670 -2671 -2672 -2673 -2674 -2675 -2676 -2677 -2678 -2679 -2680 -2681
v -2682 -2683 -2684 -2685 -2686 -2687 -2688 -2689 -2690 -2691 -2692 0
c 
c --- [ run-time profiling ] -------------------------------------------------
c 
c process time taken by individual solving procedures
c (percentage relative to process time for solving)
c 
c        19.54   98.02% search
c        10.33   51.80% stable
c         8.92   44.74% unstable
c         0.40    1.98% simplify
c         0.29    1.46% walk
c         0.14    0.72% subsume
c         0.09    0.46% vivify
c         0.06    0.32% elim
c         0.03    0.17% probe
c         0.02    0.11% ternary
c         0.00    0.02% parse
c         0.00    0.01% lucky
c   =================================
c        19.93   99.97% solve
c 
c last line shows process time for solving
c (percentage relative to total process time)
c 
c --- [ statistics ] ---------------------------------------------------------
c 
c chronological:             67580        20.79 %  of conflicts
c conflicts:                325050     16306.81    per second
c decisions:                573747     28783.21    per second
c eliminated:                 2051        76.19 %  of all variables
c fixed:                        74         2.75 %  of all variables
c learned:                  318939        98.12 %  per conflict
c learned_lits:           11927313       100.00 %  learned literals
c minimized:                     0         0.00 %  learned literals
c shrunken:                4088339        34.28 %  learned literals
c minishrunken:            1063865         8.92 %  learned literals
c propagations:           29529921         1.48 M  per second
c reduced:                  235056        72.31 %  per conflict
c rephased:                     25     13002.00    interval
c restarts:                  10693        30.40    interval
c stabilizing:                   4        52.30 %  of conflicts
c subsumed:                  44985         6.69 %  of all clauses
c strengthened:               3173         0.47 %  of all clauses
c vivified:                     22         0.00 %  of all clauses
c walked:                        7     46435.71    interval
c weakened:                   8776         2.89    average size
c 
c seconds are measured in process time for solving
c 
c --- [ resources ] ----------------------------------------------------------
c 
c total process time since initialization:        19.94    seconds
c total real time since initialization:           20.00    seconds
c maximum resident set size of process:           15.45    MB
c 
c --- [ shutting down ] ------------------------------------------------------
c 
c exit 10
